p edge 200 3980
e 1 5
e 1 9
e 1 13
e 1 18
e 1 19
e 1 22
e 1 31
e 1 33
e 1 39
e 1 50
e 1 64
e 1 65
e 1 66
e 1 75
e 1 76
e 1 77
e 1 85
e 1 96
e 1 97
e 1 109
e 1 114
e 1 118
e 1 122
e 1 127
e 1 132
e 1 138
e 1 147
e 1 153
e 1 155
e 1 166
e 1 167
e 1 171
e 1 179
e 1 190
e 1 192
e 1 199
e 2 9
e 2 19
e 2 22
e 2 25
e 2 36
e 2 38
e 2 40
e 2 41
e 2 43
e 2 53
e 2 54
e 2 64
e 2 65
e 2 66
e 2 68
e 2 75
e 2 76
e 2 78
e 2 79
e 2 84
e 2 90
e 2 99
e 2 103
e 2 104
e 2 110
e 2 113
e 2 120
e 2 124
e 2 133
e 2 141
e 2 151
e 2 157
e 2 160
e 2 174
e 2 191
e 2 193
e 2 195
e 3 5
e 3 7
e 3 13
e 3 17
e 3 33
e 3 36
e 3 38
e 3 45
e 3 49
e 3 52
e 3 56
e 3 57
e 3 58
e 3 67
e 3 72
e 3 75
e 3 76
e 3 79
e 3 82
e 3 101
e 3 113
e 3 114
e 3 116
e 3 117
e 3 121
e 3 122
e 3 123
e 3 133
e 3 134
e 3 136
e 3 140
e 3 141
e 3 149
e 3 150
e 3 159
e 3 161
e 3 163
e 3 170
e 3 175
e 3 176
e 3 181
e 3 185
e 3 191
e 3 192
e 3 193
e 3 198
e 4 8
e 4 24
e 4 44
e 4 49
e 4 51
e 4 53
e 4 60
e 4 63
e 4 65
e 4 72
e 4 82
e 4 89
e 4 91
e 4 94
e 4 98
e 4 106
e 4 108
e 4 122
e 4 128
e 4 130
e 4 136
e 4 140
e 4 142
e 4 151
e 4 155
e 4 158
e 4 165
e 4 166
e 4 167
e 4 169
e 4 173
e 4 174
e 4 182
e 4 185
e 4 189
e 5 11
e 5 13
e 5 23
e 5 35
e 5 43
e 5 44
e 5 46
e 5 47
e 5 53
e 5 60
e 5 62
e 5 71
e 5 72
e 5 74
e 5 84
e 5 87
e 5 90
e 5 95
e 5 96
e 5 97
e 5 102
e 5 103
e 5 105
e 5 110
e 5 113
e 5 114
e 5 121
e 5 128
e 5 130
e 5 133
e 5 134
e 5 144
e 5 147
e 5 162
e 5 168
e 5 171
e 5 176
e 5 185
e 5 186
e 5 187
e 5 195
e 5 199
e 6 10
e 6 14
e 6 16
e 6 18
e 6 19
e 6 28
e 6 38
e 6 42
e 6 43
e 6 44
e 6 56
e 6 64
e 6 69
e 6 76
e 6 78
e 6 79
e 6 81
e 6 83
e 6 87
e 6 90
e 6 95
e 6 96
e 6 102
e 6 112
e 6 137
e 6 141
e 6 142
e 6 149
e 6 156
e 6 163
e 6 164
e 6 170
e 6 173
e 6 174
e 6 179
e 6 180
e 6 188
e 6 189
e 6 193
e 6 198
e 7 17
e 7 18
e 7 19
e 7 22
e 7 23
e 7 29
e 7 30
e 7 31
e 7 34
e 7 48
e 7 51
e 7 54
e 7 55
e 7 59
e 7 60
e 7 64
e 7 71
e 7 73
e 7 75
e 7 86
e 7 88
e 7 91
e 7 96
e 7 99
e 7 102
e 7 109
e 7 114
e 7 121
e 7 129
e 7 130
e 7 133
e 7 136
e 7 147
e 7 148
e 7 149
e 7 153
e 7 154
e 7 159
e 7 162
e 7 167
e 7 168
e 7 178
e 7 182
e 7 192
e 7 194
e 8 16
e 8 25
e 8 27
e 8 41
e 8 43
e 8 49
e 8 53
e 8 73
e 8 78
e 8 81
e 8 90
e 8 95
e 8 100
e 8 107
e 8 110
e 8 135
e 8 141
e 8 143
e 8 150
e 8 160
e 8 167
e 8 174
e 8 179
e 8 180
e 8 181
e 8 186
e 8 188
e 8 189
e 8 192
e 8 194
e 9 25
e 9 28
e 9 40
e 9 44
e 9 45
e 9 50
e 9 53
e 9 72
e 9 91
e 9 97
e 9 101
e 9 113
e 9 116
e 9 118
e 9 119
e 9 120
e 9 127
e 9 133
e 9 140
e 9 141
e 9 150
e 9 170
e 9 173
e 9 174
e 9 180
e 9 183
e 9 185
e 9 197
e 9 200
e 10 11
e 10 26
e 10 34
e 10 38
e 10 44
e 10 50
e 10 52
e 10 58
e 10 59
e 10 63
e 10 69
e 10 71
e 10 74
e 10 77
e 10 82
e 10 83
e 10 86
e 10 90
e 10 91
e 10 97
e 10 103
e 10 105
e 10 106
e 10 111
e 10 123
e 10 127
e 10 132
e 10 138
e 10 145
e 10 149
e 10 155
e 10 163
e 10 172
e 10 173
e 10 181
e 10 184
e 10 185
e 10 186
e 10 188
e 10 194
e 11 12
e 11 33
e 11 37
e 11 44
e 11 54
e 11 55
e 11 70
e 11 73
e 11 76
e 11 80
e 11 82
e 11 89
e 11 96
e 11 99
e 11 107
e 11 108
e 11 113
e 11 117
e 11 125
e 11 130
e 11 132
e 11 136
e 11 139
e 11 143
e 11 147
e 11 149
e 11 151
e 11 154
e 11 160
e 11 166
e 11 168
e 11 174
e 11 175
e 11 180
e 11 181
e 11 188
e 11 189
e 11 192
e 11 200
e 12 20
e 12 21
e 12 26
e 12 29
e 12 35
e 12 36
e 12 38
e 12 47
e 12 49
e 12 61
e 12 63
e 12 68
e 12 74
e 12 77
e 12 81
e 12 85
e 12 86
e 12 90
e 12 92
e 12 101
e 12 108
e 12 111
e 12 124
e 12 125
e 12 127
e 12 130
e 12 137
e 12 141
e 12 154
e 12 160
e 12 165
e 12 168
e 12 177
e 12 184
e 12 189
e 12 191
e 12 199
e 13 20
e 13 23
e 13 26
e 13 34
e 13 42
e 13 44
e 13 54
e 13 55
e 13 58
e 13 62
e 13 65
e 13 75
e 13 81
e 13 86
e 13 91
e 13 93
e 13 98
e 13 105
e 13 107
e 13 111
e 13 115
e 13 123
e 13 127
e 13 136
e 13 137
e 13 142
e 13 144
e 13 153
e 13 162
e 13 165
e 13 175
e 13 179
e 13 182
e 13 184
e 13 189
e 13 191
e 13 193
e 13 197
e 14 21
e 14 32
e 14 33
e 14 39
e 14 50
e 14 54
e 14 56
e 14 62
e 14 63
e 14 73
e 14 74
e 14 77
e 14 81
e 14 84
e 14 85
e 14 89
e 14 99
e 14 101
e 14 106
e 14 111
e 14 122
e 14 123
e 14 125
e 14 127
e 14 130
e 14 131
e 14 139
e 14 140
e 14 155
e 14 157
e 14 165
e 14 174
e 14 176
e 14 177
e 14 186
e 14 191
e 14 192
e 14 195
e 14 200
e 15 19
e 15 21
e 15 27
e 15 35
e 15 45
e 15 50
e 15 66
e 15 88
e 15 99
e 15 100
e 15 101
e 15 102
e 15 109
e 15 110
e 15 111
e 15 126
e 15 127
e 15 132
e 15 134
e 15 135
e 15 145
e 15 154
e 15 156
e 15 157
e 15 160
e 15 166
e 15 167
e 15 170
e 15 176
e 15 181
e 15 182
e 15 185
e 15 186
e 15 197
e 15 200
e 16 18
e 16 19
e 16 31
e 16 35
e 16 40
e 16 42
e 16 46
e 16 48
e 16 53
e 16 55
e 16 59
e 16 72
e 16 74
e 16 75
e 16 77
e 16 78
e 16 87
e 16 91
e 16 93
e 16 97
e 16 102
e 16 107
e 16 108
e 16 113
e 16 116
e 16 118
e 16 119
e 16 131
e 16 133
e 16 139
e 16 144
e 16 145
e 16 153
e 16 167
e 16 174
e 16 181
e 16 189
e 16 200
e 17 19
e 17 22
e 17 23
e 17 27
e 17 36
e 17 37
e 17 38
e 17 40
e 17 41
e 17 50
e 17 52
e 17 55
e 17 60
e 17 71
e 17 75
e 17 76
e 17 88
e 17 89
e 17 96
e 17 97
e 17 105
e 17 106
e 17 109
e 17 122
e 17 127
e 17 132
e 17 135
e 17 138
e 17 140
e 17 141
e 17 142
e 17 143
e 17 144
e 17 153
e 17 173
e 17 176
e 17 179
e 17 180
e 17 181
e 17 185
e 17 186
e 17 197
e 17 199
e 18 24
e 18 26
e 18 31
e 18 32
e 18 48
e 18 49
e 18 52
e 18 73
e 18 75
e 18 77
e 18 78
e 18 80
e 18 96
e 18 97
e 18 98
e 18 100
e 18 107
e 18 115
e 18 117
e 18 121
e 18 127
e 18 130
e 18 132
e 18 134
e 18 135
e 18 136
e 18 138
e 18 150
e 18 151
e 18 163
e 18 164
e 18 165
e 18 168
e 18 169
e 18 173
e 18 174
e 18 182
e 18 190
e 18 192
e 19 21
e 19 24
e 19 36
e 19 43
e 19 44
e 19 49
e 19 51
e 19 53
e 19 54
e 19 56
e 19 61
e 19 67
e 19 69
e 19 78
e 19 85
e 19 91
e 19 121
e 19 124
e 19 125
e 19 127
e 19 129
e 19 131
e 19 137
e 19 141
e 19 142
e 19 144
e 19 152
e 19 168
e 19 184
e 19 185
e 19 191
e 19 194
e 19 196
e 20 22
e 20 24
e 20 25
e 20 33
e 20 34
e 20 35
e 20 36
e 20 39
e 20 46
e 20 47
e 20 48
e 20 50
e 20 55
e 20 56
e 20 67
e 20 77
e 20 80
e 20 84
e 20 86
e 20 93
e 20 98
e 20 99
e 20 121
e 20 122
e 20 138
e 20 142
e 20 150
e 20 154
e 20 161
e 20 162
e 20 171
e 20 172
e 20 178
e 20 179
e 20 191
e 21 39
e 21 40
e 21 42
e 21 48
e 21 53
e 21 56
e 21 67
e 21 70
e 21 73
e 21 74
e 21 79
e 21 81
e 21 92
e 21 96
e 21 97
e 21 99
e 21 102
e 21 105
e 21 107
e 21 112
e 21 117
e 21 126
e 21 128
e 21 132
e 21 135
e 21 138
e 21 139
e 21 144
e 21 147
e 21 167
e 21 168
e 21 176
e 21 178
e 21 182
e 21 186
e 22 24
e 22 26
e 22 27
e 22 28
e 22 31
e 22 32
e 22 33
e 22 40
e 22 46
e 22 47
e 22 59
e 22 69
e 22 80
e 22 86
e 22 94
e 22 96
e 22 98
e 22 115
e 22 123
e 22 127
e 22 132
e 22 133
e 22 136
e 22 137
e 22 143
e 22 144
e 22 145
e 22 148
e 22 152
e 22 154
e 22 155
e 22 157
e 22 158
e 22 159
e 22 165
e 22 175
e 22 180
e 22 186
e 23 27
e 23 35
e 23 37
e 23 39
e 23 43
e 23 45
e 23 48
e 23 61
e 23 69
e 23 74
e 23 75
e 23 76
e 23 86
e 23 90
e 23 95
e 23 98
e 23 100
e 23 105
e 23 115
e 23 116
e 23 120
e 23 136
e 23 145
e 23 148
e 23 150
e 23 163
e 23 164
e 23 172
e 23 173
e 23 177
e 23 184
e 23 191
e 23 194
e 23 197
e 23 199
e 24 31
e 24 35
e 24 46
e 24 50
e 24 55
e 24 61
e 24 65
e 24 71
e 24 72
e 24 79
e 24 88
e 24 98
e 24 105
e 24 107
e 24 110
e 24 119
e 24 137
e 24 159
e 24 161
e 24 164
e 24 165
e 24 166
e 24 167
e 24 170
e 24 172
e 24 183
e 24 198
e 25 30
e 25 32
e 25 38
e 25 40
e 25 43
e 25 45
e 25 57
e 25 62
e 25 63
e 25 64
e 25 67
e 25 73
e 25 75
e 25 87
e 25 103
e 25 104
e 25 107
e 25 113
e 25 118
e 25 122
e 25 124
e 25 130
e 25 133
e 25 151
e 25 152
e 25 162
e 25 168
e 25 170
e 25 171
e 25 172
e 25 176
e 25 192
e 25 194
e 25 197
e 26 34
e 26 39
e 26 40
e 26 41
e 26 42
e 26 44
e 26 45
e 26 56
e 26 59
e 26 60
e 26 63
e 26 64
e 26 66
e 26 71
e 26 73
e 26 74
e 26 75
e 26 76
e 26 78
e 26 79
e 26 81
e 26 89
e 26 99
e 26 104
e 26 111
e 26 114
e 26 115
e 26 119
e 26 121
e 26 124
e 26 128
e 26 133
e 26 134
e 26 139
e 26 142
e 26 143
e 26 144
e 26 155
e 26 159
e 26 160
e 26 173
e 26 174
e 26 183
e 26 187
e 26 194
e 26 195
e 26 200
e 27 28
e 27 33
e 27 34
e 27 35
e 27 37
e 27 42
e 27 48
e 27 50
e 27 51
e 27 56
e 27 61
e 27 71
e 27 74
e 27 75
e 27 83
e 27 87
e 27 89
e 27 92
e 27 93
e 27 98
e 27 101
e 27 112
e 27 114
e 27 119
e 27 129
e 27 131
e 27 133
e 27 148
e 27 149
e 27 165
e 27 166
e 27 167
e 27 170
e 27 176
e 27 181
e 27 185
e 27 188
e 27 191
e 27 197
e 28 35
e 28 38
e 28 39
e 28 42
e 28 45
e 28 47
e 28 49
e 28 52
e 28 57
e 28 66
e 28 70
e 28 77
e 28 79
e 28 84
e 28 87
e 28 91
e 28 94
e 28 95
e 28 97
e 28 101
e 28 106
e 28 108
e 28 112
e 28 113
e 28 123
e 28 126
e 28 134
e 28 140
e 28 141
e 28 143
e 28 144
e 28 161
e 28 166
e 28 171
e 28 176
e 28 177
e 28 183
e 28 184
e 28 185
e 28 191
e 28 195
e 28 200
e 29 39
e 29 40
e 29 47
e 29 53
e 29 62
e 29 68
e 29 71
e 29 75
e 29 83
e 29 85
e 29 88
e 29 90
e 29 95
e 29 96
e 29 99
e 29 100
e 29 103
e 29 104
e 29 108
e 29 115
e 29 118
e 29 120
e 29 125
e 29 138
e 29 139
e 29 142
e 29 150
e 29 151
e 29 171
e 29 173
e 29 182
e 30 32
e 30 47
e 30 64
e 30 65
e 30 66
e 30 88
e 30 90
e 30 96
e 30 103
e 30 111
e 30 117
e 30 119
e 30 134
e 30 136
e 30 141
e 30 151
e 30 158
e 30 169
e 30 176
e 30 186
e 30 188
e 30 189
e 30 200
e 31 35
e 31 39
e 31 40
e 31 41
e 31 42
e 31 45
e 31 47
e 31 52
e 31 53
e 31 58
e 31 64
e 31 65
e 31 67
e 31 71
e 31 75
e 31 79
e 31 87
e 31 95
e 31 98
e 31 117
e 31 121
e 31 122
e 31 124
e 31 127
e 31 132
e 31 133
e 31 134
e 31 135
e 31 136
e 31 138
e 31 142
e 31 143
e 31 149
e 31 156
e 31 171
e 31 175
e 31 177
e 31 180
e 31 194
e 31 196
e 31 197
e 31 200
e 32 52
e 32 56
e 32 63
e 32 71
e 32 91
e 32 106
e 32 117
e 32 132
e 32 144
e 32 151
e 32 156
e 32 157
e 32 160
e 32 162
e 32 166
e 32 168
e 32 169
e 32 175
e 32 178
e 32 181
e 32 182
e 32 186
e 32 191
e 32 192
e 32 200
e 33 54
e 33 58
e 33 75
e 33 77
e 33 78
e 33 81
e 33 87
e 33 89
e 33 98
e 33 102
e 33 103
e 33 106
e 33 110
e 33 112
e 33 122
e 33 123
e 33 125
e 33 135
e 33 137
e 33 140
e 33 152
e 33 158
e 33 170
e 33 171
e 33 172
e 33 173
e 33 176
e 33 186
e 33 190
e 33 195
e 33 200
e 34 36
e 34 49
e 34 53
e 34 54
e 34 61
e 34 76
e 34 79
e 34 87
e 34 97
e 34 98
e 34 101
e 34 104
e 34 119
e 34 120
e 34 123
e 34 127
e 34 146
e 34 148
e 34 152
e 34 155
e 34 162
e 34 163
e 34 165
e 34 172
e 34 181
e 34 184
e 34 189
e 34 191
e 34 197
e 35 37
e 35 39
e 35 40
e 35 44
e 35 47
e 35 48
e 35 53
e 35 58
e 35 59
e 35 61
e 35 70
e 35 71
e 35 77
e 35 79
e 35 80
e 35 87
e 35 105
e 35 109
e 35 111
e 35 122
e 35 125
e 35 126
e 35 127
e 35 129
e 35 133
e 35 137
e 35 142
e 35 148
e 35 151
e 35 155
e 35 164
e 35 173
e 35 176
e 35 181
e 35 185
e 35 187
e 35 188
e 35 189
e 35 198
e 36 40
e 36 46
e 36 51
e 36 68
e 36 74
e 36 76
e 36 77
e 36 80
e 36 100
e 36 104
e 36 107
e 36 109
e 36 110
e 36 113
e 36 129
e 36 133
e 36 135
e 36 142
e 36 146
e 36 147
e 36 149
e 36 155
e 36 157
e 36 158
e 36 162
e 36 164
e 36 166
e 36 170
e 36 174
e 36 188
e 36 190
e 36 195
e 37 38
e 37 39
e 37 45
e 37 47
e 37 48
e 37 55
e 37 56
e 37 60
e 37 67
e 37 68
e 37 71
e 37 77
e 37 81
e 37 82
e 37 83
e 37 96
e 37 100
e 37 122
e 37 124
e 37 129
e 37 139
e 37 142
e 37 156
e 37 160
e 37 165
e 37 169
e 37 173
e 37 180
e 37 189
e 38 42
e 38 43
e 38 45
e 38 48
e 38 57
e 38 60
e 38 68
e 38 69
e 38 71
e 38 78
e 38 92
e 38 100
e 38 103
e 38 106
e 38 108
e 38 115
e 38 117
e 38 118
e 38 119
e 38 125
e 38 126
e 38 129
e 38 133
e 38 139
e 38 142
e 38 145
e 38 146
e 38 148
e 38 153
e 38 157
e 38 159
e 38 163
e 38 167
e 38 173
e 38 174
e 38 175
e 38 183
e 38 185
e 38 192
e 38 195
e 38 200
e 39 40
e 39 50
e 39 55
e 39 56
e 39 59
e 39 61
e 39 64
e 39 66
e 39 69
e 39 72
e 39 74
e 39 75
e 39 93
e 39 95
e 39 97
e 39 105
e 39 111
e 39 123
e 39 132
e 39 135
e 39 139
e 39 143
e 39 144
e 39 146
e 39 154
e 39 164
e 39 167
e 39 168
e 39 183
e 39 194
e 40 51
e 40 62
e 40 68
e 40 75
e 40 80
e 40 82
e 40 84
e 40 88
e 40 96
e 40 104
e 40 107
e 40 108
e 40 109
e 40 112
e 40 114
e 40 117
e 40 126
e 40 128
e 40 134
e 40 141
e 40 143
e 40 161
e 40 164
e 40 166
e 40 168
e 40 169
e 40 170
e 40 174
e 40 180
e 40 194
e 41 43
e 41 44
e 41 49
e 41 50
e 41 54
e 41 55
e 41 74
e 41 77
e 41 78
e 41 86
e 41 88
e 41 94
e 41 102
e 41 108
e 41 111
e 41 112
e 41 118
e 41 121
e 41 124
e 41 126
e 41 130
e 41 133
e 41 136
e 41 151
e 41 154
e 41 160
e 41 162
e 41 165
e 41 170
e 41 177
e 41 179
e 41 181
e 41 190
e 41 198
e 42 46
e 42 50
e 42 61
e 42 62
e 42 69
e 42 75
e 42 79
e 42 87
e 42 93
e 42 95
e 42 99
e 42 105
e 42 109
e 42 110
e 42 115
e 42 130
e 42 133
e 42 137
e 42 146
e 42 147
e 42 148
e 42 150
e 42 155
e 42 159
e 42 162
e 42 163
e 42 164
e 42 167
e 42 170
e 42 171
e 42 172
e 42 174
e 42 176
e 42 196
e 43 48
e 43 52
e 43 59
e 43 63
e 43 68
e 43 74
e 43 75
e 43 79
e 43 84
e 43 85
e 43 93
e 43 121
e 43 122
e 43 130
e 43 131
e 43 132
e 43 145
e 43 155
e 43 168
e 43 172
e 43 179
e 43 180
e 43 181
e 43 184
e 43 187
e 43 188
e 43 190
e 43 195
e 44 47
e 44 49
e 44 54
e 44 55
e 44 56
e 44 57
e 44 58
e 44 60
e 44 87
e 44 89
e 44 102
e 44 104
e 44 107
e 44 110
e 44 113
e 44 116
e 44 126
e 44 131
e 44 132
e 44 134
e 44 142
e 44 144
e 44 150
e 44 152
e 44 158
e 44 161
e 44 163
e 44 170
e 44 171
e 44 184
e 44 200
e 45 54
e 45 56
e 45 62
e 45 66
e 45 67
e 45 72
e 45 76
e 45 78
e 45 81
e 45 87
e 45 88
e 45 91
e 45 106
e 45 107
e 45 108
e 45 109
e 45 112
e 45 114
e 45 115
e 45 127
e 45 146
e 45 149
e 45 164
e 45 165
e 45 166
e 45 174
e 45 179
e 45 182
e 45 187
e 45 188
e 45 191
e 45 192
e 45 195
e 45 196
e 45 197
e 45 200
e 46 50
e 46 58
e 46 63
e 46 66
e 46 77
e 46 81
e 46 82
e 46 84
e 46 85
e 46 102
e 46 103
e 46 113
e 46 118
e 46 120
e 46 124
e 46 126
e 46 131
e 46 140
e 46 154
e 46 155
e 46 156
e 46 158
e 46 164
e 46 165
e 46 171
e 46 180
e 46 185
e 46 189
e 46 190
e 46 193
e 46 196
e 46 197
e 47 50
e 47 51
e 47 52
e 47 76
e 47 87
e 47 90
e 47 101
e 47 102
e 47 105
e 47 115
e 47 122
e 47 126
e 47 139
e 47 140
e 47 142
e 47 145
e 47 146
e 47 148
e 47 151
e 47 152
e 47 154
e 47 170
e 47 177
e 47 181
e 47 185
e 47 189
e 47 195
e 47 198
e 47 199
e 48 53
e 48 59
e 48 61
e 48 65
e 48 66
e 48 79
e 48 89
e 48 95
e 48 113
e 48 120
e 48 127
e 48 131
e 48 132
e 48 137
e 48 140
e 48 149
e 48 153
e 48 160
e 48 163
e 48 165
e 48 169
e 48 172
e 48 174
e 48 180
e 48 181
e 48 185
e 48 189
e 48 197
e 48 198
e 49 50
e 49 59
e 49 60
e 49 64
e 49 65
e 49 66
e 49 70
e 49 76
e 49 77
e 49 81
e 49 85
e 49 86
e 49 94
e 49 98
e 49 101
e 49 102
e 49 105
e 49 106
e 49 109
e 49 114
e 49 122
e 49 123
e 49 128
e 49 130
e 49 141
e 49 146
e 49 148
e 49 149
e 49 150
e 49 161
e 49 162
e 49 170
e 49 171
e 49 174
e 49 177
e 49 182
e 49 184
e 49 186
e 49 190
e 49 195
e 49 198
e 50 53
e 50 56
e 50 59
e 50 69
e 50 70
e 50 77
e 50 82
e 50 84
e 50 88
e 50 89
e 50 94
e 50 96
e 50 102
e 50 106
e 50 110
e 50 124
e 50 132
e 50 133
e 50 134
e 50 140
e 50 145
e 50 146
e 50 150
e 50 151
e 50 156
e 50 157
e 50 172
e 50 175
e 50 176
e 50 180
e 50 183
e 50 189
e 50 193
e 50 200
e 51 52
e 51 54
e 51 63
e 51 64
e 51 67
e 51 69
e 51 74
e 51 80
e 51 81
e 51 83
e 51 86
e 51 87
e 51 93
e 51 104
e 51 107
e 51 112
e 51 119
e 51 130
e 51 136
e 51 137
e 51 138
e 51 142
e 51 158
e 51 161
e 51 163
e 51 165
e 51 167
e 51 175
e 51 184
e 51 192
e 51 196
e 51 199
e 52 56
e 52 57
e 52 63
e 52 65
e 52 68
e 52 97
e 52 98
e 52 100
e 52 109
e 52 111
e 52 115
e 52 120
e 52 123
e 52 124
e 52 128
e 52 135
e 52 136
e 52 143
e 52 147
e 52 149
e 52 154
e 52 161
e 52 165
e 52 167
e 52 181
e 52 186
e 52 187
e 52 195
e 53 56
e 53 66
e 53 69
e 53 71
e 53 74
e 53 76
e 53 82
e 53 85
e 53 86
e 53 91
e 53 97
e 53 111
e 53 117
e 53 120
e 53 122
e 53 127
e 53 131
e 53 141
e 53 149
e 53 154
e 53 155
e 53 165
e 53 166
e 53 169
e 53 170
e 53 179
e 53 182
e 53 188
e 53 194
e 54 62
e 54 64
e 54 71
e 54 72
e 54 74
e 54 76
e 54 80
e 54 93
e 54 99
e 54 109
e 54 111
e 54 126
e 54 138
e 54 139
e 54 153
e 54 156
e 54 162
e 54 163
e 54 169
e 54 170
e 54 171
e 54 174
e 54 176
e 54 178
e 54 184
e 54 193
e 54 196
e 54 199
e 54 200
e 55 56
e 55 65
e 55 69
e 55 71
e 55 77
e 55 79
e 55 82
e 55 87
e 55 94
e 55 96
e 55 97
e 55 98
e 55 103
e 55 112
e 55 113
e 55 122
e 55 123
e 55 126
e 55 128
e 55 133
e 55 135
e 55 137
e 55 147
e 55 148
e 55 155
e 55 156
e 55 158
e 55 160
e 55 162
e 55 165
e 55 179
e 55 189
e 55 191
e 56 64
e 56 68
e 56 77
e 56 88
e 56 95
e 56 97
e 56 99
e 56 102
e 56 111
e 56 114
e 56 119
e 56 120
e 56 121
e 56 122
e 56 124
e 56 131
e 56 150
e 56 175
e 56 185
e 56 198
e 57 60
e 57 67
e 57 69
e 57 71
e 57 72
e 57 74
e 57 76
e 57 79
e 57 84
e 57 85
e 57 102
e 57 112
e 57 116
e 57 119
e 57 135
e 57 137
e 57 141
e 57 146
e 57 149
e 57 150
e 57 154
e 57 158
e 57 161
e 57 166
e 57 169
e 57 174
e 57 175
e 57 192
e 57 196
e 57 199
e 58 59
e 58 61
e 58 63
e 58 72
e 58 73
e 58 75
e 58 95
e 58 104
e 58 105
e 58 107
e 58 112
e 58 118
e 58 124
e 58 125
e 58 129
e 58 132
e 58 143
e 58 144
e 58 157
e 58 163
e 58 166
e 58 169
e 58 171
e 58 183
e 58 184
e 58 185
e 58 186
e 58 189
e 58 194
e 59 68
e 59 80
e 59 84
e 59 91
e 59 94
e 59 96
e 59 110
e 59 117
e 59 120
e 59 131
e 59 136
e 59 138
e 59 139
e 59 145
e 59 149
e 59 150
e 59 151
e 59 167
e 59 171
e 59 177
e 59 178
e 59 183
e 59 184
e 59 187
e 59 190
e 59 192
e 59 193
e 59 199
e 59 200
e 60 62
e 60 66
e 60 68
e 60 69
e 60 71
e 60 75
e 60 79
e 60 80
e 60 83
e 60 88
e 60 89
e 60 105
e 60 107
e 60 108
e 60 114
e 60 121
e 60 122
e 60 130
e 60 137
e 60 155
e 60 156
e 60 161
e 60 162
e 60 164
e 60 167
e 60 170
e 60 176
e 60 178
e 60 196
e 60 198
e 60 200
e 61 70
e 61 73
e 61 74
e 61 78
e 61 87
e 61 88
e 61 89
e 61 93
e 61 94
e 61 96
e 61 98
e 61 108
e 61 115
e 61 116
e 61 119
e 61 120
e 61 128
e 61 137
e 61 138
e 61 143
e 61 144
e 61 149
e 61 153
e 61 160
e 61 174
e 61 183
e 61 185
e 61 187
e 61 195
e 61 197
e 61 198
e 61 199
e 62 65
e 62 70
e 62 72
e 62 74
e 62 81
e 62 82
e 62 85
e 62 86
e 62 93
e 62 94
e 62 95
e 62 107
e 62 118
e 62 119
e 62 120
e 62 125
e 62 129
e 62 134
e 62 138
e 62 158
e 62 164
e 62 166
e 62 168
e 62 173
e 62 176
e 62 177
e 62 183
e 62 184
e 62 187
e 62 195
e 63 64
e 63 70
e 63 73
e 63 78
e 63 80
e 63 85
e 63 90
e 63 96
e 63 98
e 63 108
e 63 112
e 63 129
e 63 135
e 63 144
e 63 147
e 63 148
e 63 156
e 63 157
e 63 165
e 63 167
e 63 168
e 63 179
e 63 189
e 63 190
e 63 191
e 63 195
e 64 65
e 64 74
e 64 78
e 64 83
e 64 90
e 64 92
e 64 99
e 64 101
e 64 105
e 64 108
e 64 119
e 64 127
e 64 129
e 64 133
e 64 141
e 64 147
e 64 150
e 64 154
e 64 162
e 64 168
e 64 170
e 64 176
e 64 177
e 64 181
e 64 196
e 65 66
e 65 67
e 65 71
e 65 76
e 65 78
e 65 91
e 65 98
e 65 101
e 65 125
e 65 128
e 65 132
e 65 146
e 65 148
e 65 149
e 65 156
e 65 160
e 65 162
e 65 166
e 65 168
e 65 170
e 65 175
e 65 179
e 65 181
e 65 183
e 65 186
e 65 189
e 65 195
e 65 200
e 66 69
e 66 77
e 66 80
e 66 84
e 66 85
e 66 86
e 66 92
e 66 97
e 66 111
e 66 113
e 66 114
e 66 123
e 66 129
e 66 131
e 66 136
e 66 137
e 66 139
e 66 142
e 66 146
e 66 158
e 66 162
e 66 172
e 66 173
e 66 186
e 66 188
e 66 193
e 66 194
e 67 69
e 67 73
e 67 75
e 67 81
e 67 84
e 67 89
e 67 92
e 67 102
e 67 103
e 67 109
e 67 122
e 67 126
e 67 127
e 67 128
e 67 130
e 67 137
e 67 138
e 67 149
e 67 151
e 67 152
e 67 153
e 67 156
e 67 161
e 67 169
e 67 179
e 67 183
e 67 192
e 67 198
e 68 69
e 68 74
e 68 76
e 68 77
e 68 78
e 68 81
e 68 85
e 68 87
e 68 98
e 68 108
e 68 112
e 68 124
e 68 128
e 68 136
e 68 139
e 68 140
e 68 148
e 68 150
e 68 157
e 68 161
e 68 171
e 68 174
e 68 175
e 68 176
e 68 184
e 68 189
e 68 195
e 68 199
e 69 70
e 69 75
e 69 76
e 69 78
e 69 89
e 69 92
e 69 94
e 69 96
e 69 117
e 69 120
e 69 129
e 69 135
e 69 137
e 69 143
e 69 148
e 69 150
e 69 151
e 69 156
e 69 160
e 69 176
e 69 178
e 69 182
e 69 183
e 69 186
e 69 191
e 69 198
e 69 200
e 70 74
e 70 75
e 70 79
e 70 84
e 70 86
e 70 91
e 70 93
e 70 98
e 70 101
e 70 108
e 70 111
e 70 112
e 70 114
e 70 117
e 70 122
e 70 124
e 70 125
e 70 131
e 70 143
e 70 154
e 70 155
e 70 159
e 70 160
e 70 166
e 70 169
e 70 173
e 70 175
e 70 191
e 70 195
e 70 197
e 71 73
e 71 76
e 71 107
e 71 110
e 71 111
e 71 124
e 71 129
e 71 152
e 71 153
e 71 159
e 71 160
e 71 163
e 71 171
e 71 172
e 71 176
e 71 177
e 71 179
e 71 180
e 71 186
e 71 187
e 71 189
e 71 198
e 71 199
e 72 76
e 72 79
e 72 81
e 72 88
e 72 110
e 72 121
e 72 131
e 72 132
e 72 133
e 72 142
e 72 146
e 72 148
e 72 160
e 72 176
e 72 178
e 72 179
e 72 193
e 72 195
e 73 77
e 73 87
e 73 90
e 73 96
e 73 106
e 73 107
e 73 110
e 73 117
e 73 122
e 73 127
e 73 134
e 73 135
e 73 136
e 73 153
e 73 165
e 73 170
e 73 172
e 73 175
e 73 185
e 73 199
e 73 200
e 74 77
e 74 82
e 74 84
e 74 85
e 74 92
e 74 98
e 74 102
e 74 107
e 74 108
e 74 113
e 74 115
e 74 116
e 74 124
e 74 125
e 74 132
e 74 138
e 74 141
e 74 149
e 74 151
e 74 160
e 74 162
e 74 163
e 74 172
e 74 183
e 74 184
e 74 185
e 74 188
e 74 189
e 74 194
e 74 197
e 74 198
e 74 200
e 75 83
e 75 85
e 75 91
e 75 102
e 75 107
e 75 110
e 75 114
e 75 116
e 75 120
e 75 126
e 75 138
e 75 139
e 75 140
e 75 146
e 75 148
e 75 153
e 75 156
e 75 158
e 75 161
e 75 162
e 75 165
e 75 173
e 75 185
e 75 186
e 75 194
e 75 198
e 75 199
e 76 79
e 76 82
e 76 87
e 76 90
e 76 95
e 76 101
e 76 103
e 76 107
e 76 109
e 76 113
e 76 116
e 76 124
e 76 128
e 76 139
e 76 141
e 76 149
e 76 151
e 76 161
e 76 168
e 76 169
e 76 182
e 76 183
e 76 185
e 76 186
e 76 192
e 77 78
e 77 81
e 77 84
e 77 85
e 77 86
e 77 95
e 77 98
e 77 100
e 77 105
e 77 109
e 77 116
e 77 117
e 77 118
e 77 120
e 77 121
e 77 125
e 77 128
e 77 131
e 77 133
e 77 136
e 77 137
e 77 150
e 77 159
e 77 174
e 77 177
e 77 178
e 77 189
e 78 80
e 78 81
e 78 85
e 78 86
e 78 88
e 78 92
e 78 94
e 78 96
e 78 98
e 78 105
e 78 116
e 78 118
e 78 125
e 78 133
e 78 138
e 78 139
e 78 141
e 78 142
e 78 143
e 78 144
e 78 149
e 78 155
e 78 158
e 78 165
e 78 167
e 78 174
e 78 181
e 78 194
e 78 197
e 79 80
e 79 83
e 79 87
e 79 88
e 79 103
e 79 106
e 79 117
e 79 126
e 79 128
e 79 141
e 79 153
e 79 169
e 79 174
e 79 176
e 79 180
e 79 181
e 79 195
e 79 197
e 79 198
e 79 199
e 80 83
e 80 86
e 80 95
e 80 97
e 80 99
e 80 101
e 80 102
e 80 104
e 80 109
e 80 118
e 80 120
e 80 125
e 80 137
e 80 147
e 80 148
e 80 159
e 80 170
e 80 172
e 80 191
e 81 85
e 81 89
e 81 90
e 81 91
e 81 101
e 81 102
e 81 103
e 81 122
e 81 124
e 81 130
e 81 131
e 81 136
e 81 146
e 81 148
e 81 149
e 81 151
e 81 161
e 81 170
e 81 181
e 81 183
e 81 196
e 82 87
e 82 95
e 82 101
e 82 106
e 82 109
e 82 112
e 82 114
e 82 117
e 82 118
e 82 120
e 82 132
e 82 137
e 82 139
e 82 145
e 82 149
e 82 151
e 82 152
e 82 153
e 82 156
e 82 158
e 82 163
e 82 165
e 82 174
e 82 176
e 82 187
e 82 194
e 82 199
e 82 200
e 83 91
e 83 102
e 83 107
e 83 109
e 83 110
e 83 122
e 83 125
e 83 155
e 83 180
e 83 186
e 83 193
e 83 194
e 84 90
e 84 93
e 84 96
e 84 99
e 84 102
e 84 126
e 84 128
e 84 130
e 84 132
e 84 140
e 84 146
e 84 148
e 84 168
e 84 169
e 84 172
e 84 183
e 84 197
e 84 198
e 85 91
e 85 92
e 85 93
e 85 98
e 85 99
e 85 104
e 85 113
e 85 118
e 85 124
e 85 127
e 85 136
e 85 144
e 85 148
e 85 151
e 85 159
e 85 163
e 85 164
e 85 175
e 85 177
e 85 179
e 85 180
e 85 186
e 86 90
e 86 93
e 86 100
e 86 103
e 86 106
e 86 107
e 86 113
e 86 120
e 86 129
e 86 130
e 86 135
e 86 136
e 86 146
e 86 148
e 86 151
e 86 154
e 86 158
e 86 171
e 86 172
e 86 175
e 86 176
e 86 177
e 86 179
e 86 195
e 87 93
e 87 97
e 87 98
e 87 100
e 87 103
e 87 112
e 87 116
e 87 117
e 87 121
e 87 122
e 87 128
e 87 131
e 87 136
e 87 140
e 87 149
e 87 159
e 87 161
e 87 165
e 87 170
e 87 173
e 87 176
e 87 181
e 87 190
e 87 197
e 87 199
e 88 91
e 88 100
e 88 107
e 88 115
e 88 120
e 88 130
e 88 131
e 88 134
e 88 137
e 88 149
e 88 153
e 88 159
e 88 160
e 88 170
e 88 171
e 88 172
e 88 173
e 88 175
e 88 178
e 88 180
e 88 189
e 88 200
e 89 101
e 89 104
e 89 105
e 89 108
e 89 110
e 89 114
e 89 115
e 89 121
e 89 122
e 89 126
e 89 129
e 89 136
e 89 143
e 89 144
e 89 154
e 89 159
e 89 160
e 89 162
e 89 167
e 89 168
e 89 169
e 89 170
e 89 173
e 89 175
e 89 178
e 89 179
e 89 184
e 89 185
e 89 186
e 89 190
e 89 194
e 89 200
e 90 93
e 90 101
e 90 106
e 90 109
e 90 117
e 90 118
e 90 119
e 90 122
e 90 124
e 90 129
e 90 146
e 90 148
e 90 165
e 90 168
e 90 169
e 90 172
e 90 173
e 90 186
e 90 188
e 90 192
e 90 193
e 91 93
e 91 97
e 91 99
e 91 100
e 91 113
e 91 121
e 91 123
e 91 130
e 91 133
e 91 143
e 91 144
e 91 151
e 91 158
e 91 182
e 91 183
e 91 184
e 91 191
e 91 193
e 91 196
e 91 200
e 92 93
e 92 99
e 92 105
e 92 110
e 92 113
e 92 115
e 92 119
e 92 136
e 92 161
e 92 164
e 92 166
e 92 171
e 92 176
e 92 185
e 92 190
e 92 193
e 93 105
e 93 113
e 93 117
e 93 122
e 93 124
e 93 125
e 93 126
e 93 130
e 93 150
e 93 159
e 93 162
e 93 172
e 93 176
e 93 177
e 93 181
e 93 187
e 93 188
e 93 190
e 93 192
e 93 197
e 94 98
e 94 104
e 94 116
e 94 126
e 94 130
e 94 133
e 94 138
e 94 151
e 94 155
e 94 157
e 94 162
e 94 167
e 94 171
e 94 174
e 94 176
e 94 181
e 94 191
e 94 194
e 94 197
e 95 98
e 95 100
e 95 108
e 95 109
e 95 110
e 95 111
e 95 125
e 95 127
e 95 131
e 95 137
e 95 140
e 95 149
e 95 156
e 95 159
e 95 173
e 95 175
e 95 178
e 95 179
e 95 180
e 95 185
e 95 191
e 95 192
e 95 194
e 95 196
e 95 200
e 96 99
e 96 102
e 96 108
e 96 119
e 96 120
e 96 121
e 96 123
e 96 134
e 96 138
e 96 148
e 96 149
e 96 151
e 96 154
e 96 161
e 96 162
e 96 167
e 96 174
e 96 179
e 96 180
e 96 181
e 96 199
e 97 98
e 97 111
e 97 116
e 97 117
e 97 118
e 97 119
e 97 128
e 97 135
e 97 137
e 97 140
e 97 144
e 97 147
e 97 149
e 97 154
e 97 158
e 97 161
e 97 164
e 97 165
e 97 169
e 97 178
e 97 183
e 97 189
e 97 200
e 98 103
e 98 107
e 98 114
e 98 125
e 98 137
e 98 138
e 98 145
e 98 158
e 98 180
e 98 183
e 98 188
e 98 196
e 99 103
e 99 104
e 99 105
e 99 109
e 99 115
e 99 119
e 99 121
e 99 123
e 99 127
e 99 139
e 99 141
e 99 144
e 99 150
e 99 151
e 99 152
e 99 160
e 99 163
e 99 170
e 99 183
e 99 185
e 99 187
e 99 188
e 99 190
e 99 192
e 99 199
e 100 103
e 100 104
e 100 111
e 100 115
e 100 121
e 100 129
e 100 144
e 100 147
e 100 148
e 100 164
e 100 166
e 100 168
e 100 170
e 100 172
e 100 173
e 100 174
e 100 175
e 100 183
e 100 190
e 100 199
e 101 104
e 101 109
e 101 114
e 101 117
e 101 118
e 101 122
e 101 147
e 101 148
e 101 150
e 101 153
e 101 156
e 101 166
e 101 169
e 101 187
e 101 190
e 101 191
e 101 192
e 101 193
e 101 195
e 101 198
e 101 199
e 102 105
e 102 111
e 102 130
e 102 147
e 102 150
e 102 153
e 102 166
e 102 169
e 102 171
e 102 176
e 102 182
e 102 186
e 102 198
e 103 107
e 103 111
e 103 113
e 103 114
e 103 119
e 103 122
e 103 126
e 103 127
e 103 128
e 103 129
e 103 130
e 103 137
e 103 144
e 103 148
e 103 153
e 103 162
e 103 163
e 103 166
e 103 168
e 103 169
e 103 172
e 103 173
e 103 176
e 103 180
e 103 191
e 103 196
e 104 119
e 104 121
e 104 128
e 104 133
e 104 139
e 104 140
e 104 145
e 104 147
e 104 148
e 104 153
e 104 163
e 104 168
e 104 169
e 104 171
e 104 178
e 104 182
e 104 186
e 104 188
e 104 189
e 104 195
e 105 108
e 105 112
e 105 113
e 105 117
e 105 124
e 105 125
e 105 136
e 105 141
e 105 142
e 105 143
e 105 144
e 105 148
e 105 153
e 105 154
e 105 179
e 105 180
e 105 185
e 105 191
e 105 195
e 106 127
e 106 137
e 106 141
e 106 144
e 106 153
e 106 160
e 106 171
e 106 172
e 106 176
e 106 187
e 106 192
e 106 194
e 107 110
e 107 115
e 107 122
e 107 130
e 107 137
e 107 143
e 107 145
e 107 153
e 107 161
e 107 164
e 107 165
e 107 169
e 107 186
e 107 188
e 107 193
e 107 199
e 108 116
e 108 117
e 108 118
e 108 140
e 108 145
e 108 148
e 108 152
e 108 157
e 108 158
e 108 167
e 108 172
e 108 180
e 108 185
e 108 187
e 108 191
e 109 119
e 109 120
e 109 127
e 109 134
e 109 135
e 109 144
e 109 148
e 109 154
e 109 156
e 109 159
e 109 160
e 109 162
e 109 164
e 109 166
e 109 177
e 109 179
e 109 182
e 109 184
e 109 191
e 109 193
e 109 194
e 109 196
e 110 116
e 110 117
e 110 119
e 110 125
e 110 129
e 110 131
e 110 143
e 110 164
e 110 165
e 110 168
e 110 176
e 110 186
e 110 187
e 111 114
e 111 123
e 111 124
e 111 128
e 111 133
e 111 135
e 111 141
e 111 144
e 111 152
e 111 155
e 111 158
e 111 161
e 111 163
e 111 166
e 111 170
e 111 181
e 111 183
e 111 185
e 111 187
e 111 192
e 111 195
e 111 199
e 112 114
e 112 119
e 112 140
e 112 144
e 112 153
e 112 155
e 112 176
e 112 178
e 112 185
e 112 187
e 112 190
e 112 196
e 112 197
e 112 200
e 113 125
e 113 126
e 113 128
e 113 134
e 113 141
e 113 155
e 113 165
e 113 168
e 113 173
e 113 174
e 113 180
e 113 190
e 113 196
e 114 115
e 114 119
e 114 126
e 114 128
e 114 129
e 114 132
e 114 133
e 114 139
e 114 140
e 114 142
e 114 145
e 114 149
e 114 151
e 114 154
e 114 155
e 114 160
e 114 169
e 114 177
e 114 178
e 114 191
e 114 195
e 114 200
e 115 121
e 115 122
e 115 123
e 115 125
e 115 131
e 115 135
e 115 155
e 115 157
e 115 161
e 115 173
e 115 177
e 115 186
e 115 188
e 115 190
e 115 191
e 115 192
e 115 196
e 116 124
e 116 127
e 116 128
e 116 135
e 116 136
e 116 143
e 116 146
e 116 149
e 116 151
e 116 161
e 116 172
e 116 176
e 116 178
e 116 181
e 116 191
e 116 193
e 116 197
e 116 199
e 117 120
e 117 121
e 117 123
e 117 125
e 117 136
e 117 137
e 117 139
e 117 156
e 117 159
e 117 165
e 117 166
e 117 177
e 117 188
e 117 192
e 117 193
e 117 195
e 117 200
e 118 121
e 118 129
e 118 130
e 118 136
e 118 141
e 118 145
e 118 147
e 118 154
e 118 157
e 118 158
e 118 166
e 118 169
e 118 171
e 118 173
e 118 182
e 118 195
e 118 196
e 118 197
e 118 198
e 119 120
e 119 121
e 119 125
e 119 126
e 119 130
e 119 144
e 119 147
e 119 160
e 119 176
e 119 183
e 119 184
e 119 186
e 119 191
e 119 192
e 119 194
e 120 131
e 120 146
e 120 153
e 120 155
e 120 157
e 120 164
e 120 173
e 120 180
e 121 123
e 121 131
e 121 143
e 121 145
e 121 150
e 121 153
e 121 157
e 121 162
e 121 163
e 121 179
e 121 180
e 121 181
e 121 187
e 121 191
e 121 196
e 122 125
e 122 127
e 122 129
e 122 130
e 122 138
e 122 141
e 122 155
e 122 157
e 122 159
e 122 161
e 122 163
e 122 169
e 122 172
e 122 174
e 122 178
e 122 181
e 122 183
e 122 188
e 122 195
e 122 196
e 123 124
e 123 127
e 123 130
e 123 136
e 123 138
e 123 141
e 123 144
e 123 150
e 123 165
e 123 166
e 123 168
e 123 181
e 123 182
e 123 183
e 123 188
e 123 189
e 123 191
e 123 192
e 124 126
e 124 127
e 124 134
e 124 144
e 124 147
e 124 151
e 124 157
e 124 160
e 124 164
e 124 173
e 124 174
e 124 183
e 124 184
e 124 189
e 124 199
e 125 126
e 125 129
e 125 135
e 125 143
e 125 144
e 125 146
e 125 147
e 125 154
e 125 166
e 125 169
e 125 181
e 125 186
e 125 187
e 125 196
e 126 127
e 126 130
e 126 152
e 126 153
e 126 157
e 126 159
e 126 165
e 126 177
e 126 185
e 126 195
e 127 130
e 127 131
e 127 133
e 127 134
e 127 136
e 127 143
e 127 145
e 127 152
e 127 154
e 127 170
e 127 172
e 127 181
e 127 186
e 127 187
e 127 199
e 128 130
e 128 135
e 128 141
e 128 142
e 128 144
e 128 146
e 128 149
e 128 154
e 128 167
e 128 168
e 128 169
e 128 173
e 128 193
e 129 140
e 129 141
e 129 142
e 129 147
e 129 156
e 129 164
e 129 168
e 129 181
e 129 186
e 129 199
e 130 132
e 130 133
e 130 143
e 130 147
e 130 148
e 130 149
e 130 163
e 130 164
e 130 174
e 130 176
e 130 180
e 130 182
e 130 189
e 130 191
e 130 197
e 130 198
e 131 141
e 131 147
e 131 155
e 131 158
e 131 161
e 131 167
e 131 175
e 131 188
e 131 194
e 131 196
e 132 133
e 132 138
e 132 148
e 132 149
e 132 156
e 132 159
e 132 160
e 132 163
e 132 168
e 132 172
e 132 173
e 132 174
e 132 179
e 132 181
e 132 183
e 132 187
e 132 189
e 132 194
e 133 140
e 133 141
e 133 142
e 133 143
e 133 144
e 133 148
e 133 155
e 133 163
e 133 164
e 133 166
e 133 178
e 133 181
e 133 194
e 134 136
e 134 138
e 134 139
e 134 142
e 134 145
e 134 146
e 134 148
e 134 149
e 134 159
e 134 165
e 134 171
e 134 176
e 134 184
e 134 186
e 134 190
e 134 198
e 135 145
e 135 151
e 135 155
e 135 163
e 135 167
e 135 175
e 135 180
e 135 184
e 135 185
e 135 186
e 135 187
e 135 198
e 135 200
e 136 144
e 136 145
e 136 148
e 136 165
e 136 166
e 136 168
e 136 171
e 136 186
e 136 193
e 136 195
e 136 197
e 136 198
e 137 141
e 137 163
e 137 170
e 137 171
e 137 172
e 137 176
e 137 187
e 137 194
e 137 197
e 138 139
e 138 160
e 138 161
e 138 163
e 138 164
e 138 170
e 138 180
e 138 185
e 138 189
e 139 141
e 139 144
e 139 147
e 139 149
e 139 153
e 139 154
e 139 167
e 139 183
e 139 188
e 139 191
e 140 142
e 140 160
e 140 164
e 140 169
e 140 176
e 140 177
e 140 178
e 140 179
e 140 180
e 140 185
e 140 186
e 140 192
e 140 193
e 140 197
e 141 143
e 141 144
e 141 156
e 141 158
e 141 163
e 141 167
e 141 178
e 141 180
e 141 181
e 141 192
e 141 196
e 141 199
e 142 144
e 142 151
e 142 156
e 142 161
e 142 162
e 142 165
e 142 167
e 142 170
e 142 174
e 142 178
e 142 193
e 142 194
e 142 199
e 143 148
e 143 149
e 143 151
e 143 152
e 143 160
e 143 167
e 143 173
e 143 177
e 143 178
e 143 179
e 143 180
e 143 184
e 143 185
e 143 187
e 143 193
e 144 146
e 144 148
e 144 152
e 144 158
e 144 166
e 144 171
e 144 181
e 144 182
e 144 189
e 145 146
e 145 148
e 145 150
e 145 158
e 145 159
e 145 160
e 145 168
e 145 175
e 145 182
e 145 186
e 145 192
e 145 200
e 146 150
e 146 152
e 146 154
e 146 156
e 146 157
e 146 159
e 146 160
e 146 177
e 146 179
e 146 181
e 146 187
e 146 194
e 147 151
e 147 153
e 147 163
e 147 167
e 147 178
e 147 181
e 147 183
e 147 189
e 147 190
e 147 191
e 147 196
e 148 152
e 148 153
e 148 155
e 148 158
e 148 159
e 148 160
e 148 170
e 148 172
e 148 175
e 148 181
e 148 194
e 148 199
e 148 200
e 149 163
e 149 176
e 149 195
e 150 153
e 150 159
e 150 160
e 150 164
e 150 170
e 150 177
e 150 179
e 150 184
e 150 185
e 150 188
e 150 193
e 150 196
e 151 152
e 151 154
e 151 155
e 151 157
e 151 161
e 151 167
e 151 176
e 151 181
e 151 184
e 151 187
e 152 159
e 152 162
e 152 165
e 152 167
e 152 174
e 152 175
e 152 176
e 152 179
e 152 185
e 152 191
e 152 199
e 153 172
e 153 177
e 153 179
e 153 180
e 153 184
e 153 195
e 153 199
e 154 156
e 154 157
e 154 158
e 154 161
e 154 162
e 154 165
e 154 166
e 154 167
e 154 169
e 154 172
e 154 173
e 154 176
e 154 182
e 154 183
e 154 193
e 154 194
e 154 195
e 154 200
e 155 165
e 155 168
e 155 170
e 155 174
e 155 184
e 155 189
e 155 190
e 155 193
e 155 196
e 155 199
e 156 161
e 156 162
e 156 163
e 156 168
e 156 175
e 156 184
e 156 186
e 156 191
e 156 193
e 157 164
e 157 165
e 157 171
e 157 179
e 157 185
e 157 191
e 157 198
e 157 199
e 158 160
e 158 161
e 158 178
e 158 181
e 158 183
e 158 185
e 158 187
e 158 189
e 158 190
e 158 200
e 159 167
e 159 183
e 159 186
e 159 195
e 160 161
e 160 162
e 160 163
e 160 168
e 160 177
e 160 180
e 160 190
e 160 199
e 160 200
e 161 165
e 161 171
e 161 183
e 161 185
e 161 195
e 161 197
e 161 200
e 162 163
e 162 165
e 162 167
e 162 168
e 162 170
e 162 174
e 162 176
e 162 178
e 162 192
e 162 196
e 163 164
e 163 174
e 163 178
e 163 185
e 163 186
e 163 189
e 163 193
e 163 196
e 164 175
e 164 177
e 164 178
e 164 180
e 164 183
e 164 190
e 164 192
e 164 195
e 164 197
e 164 199
e 164 200
e 165 167
e 165 169
e 165 171
e 165 174
e 165 175
e 165 176
e 165 179
e 165 193
e 165 196
e 166 178
e 166 182
e 166 186
e 166 190
e 166 196
e 166 197
e 166 198
e 167 170
e 167 173
e 167 175
e 167 177
e 167 187
e 167 188
e 167 192
e 167 200
e 168 170
e 168 179
e 168 182
e 168 185
e 168 186
e 168 187
e 168 189
e 168 190
e 168 199
e 169 181
e 169 183
e 169 187
e 169 188
e 169 190
e 170 174
e 170 176
e 170 177
e 170 188
e 170 190
e 170 191
e 170 197
e 171 174
e 171 178
e 171 179
e 171 180
e 171 182
e 171 192
e 171 195
e 171 197
e 172 177
e 172 181
e 172 192
e 172 194
e 173 183
e 173 187
e 173 200
e 174 175
e 174 180
e 174 183
e 174 188
e 174 198
e 175 177
e 175 179
e 175 180
e 175 196
e 176 177
e 176 180
e 176 181
e 176 183
e 176 188
e 176 190
e 176 193
e 177 181
e 177 189
e 177 191
e 177 193
e 178 190
e 179 180
e 179 185
e 180 181
e 180 187
e 180 199
e 181 187
e 181 189
e 181 193
e 181 194
e 181 198
e 181 200
e 182 186
e 182 187
e 182 189
e 183 188
e 183 192
e 183 193
e 183 199
e 184 194
e 184 198
e 185 191
e 185 198
e 186 192
e 186 198
e 187 189
e 187 194
e 187 196
e 189 192
e 189 193
e 189 194
e 190 191
e 190 200
e 191 196
e 191 199
e 191 200
e 193 197
e 194 199
e 196 197
e 196 199
e 196 200
e 197 200
e 199 200
